T = 150;
V = 10;
Q = 15;
L = 11;
C = 10;
P = 10;
time = [|  0,  4,  0,  0,  6, 20, 14, 29, 29, 10, 20, 10,  4, 29,  8,  0,  0,  4, 20, 14, 17, 17, 17, 17, 17, 17, 17, 17, 17, 17, 17, 17, 17, 17, 17, 17, 17, 17, 17, 17,
        |  4,  0,  4,  4,  7, 22, 17, 30, 29,  7, 22,  7,  0, 30,  8,  4,  4,  0, 22, 17, 18, 18, 18, 18, 18, 18, 18, 18, 18, 18, 18, 18, 18, 18, 18, 18, 18, 18, 18, 18,
        |  0,  4,  0,  0,  6, 20, 14, 29, 29, 10, 20, 10,  4, 29,  8,  0,  0,  4, 20, 14, 17, 17, 17, 17, 17, 17, 17, 17, 17, 17, 17, 17, 17, 17, 17, 17, 17, 17, 17, 17,
        |  0,  4,  0,  0,  6, 20, 14, 29, 29, 10, 20, 10,  4, 29,  8,  0,  0,  4, 20, 14, 17, 17, 17, 17, 17, 17, 17, 17, 17, 17, 17, 17, 17, 17, 17, 17, 17, 17, 17, 17,
        |  6,  7,  6,  6,  0, 26, 19, 34, 34, 12, 26, 12,  7, 34,  3,  6,  6,  7, 26, 19, 23, 23, 23, 23, 23, 23, 23, 23, 23, 23, 23, 23, 23, 23, 23, 23, 23, 23, 23, 23,
        | 20, 22, 20, 20, 26,  0,  9,  9, 15, 25,  0, 25, 22,  9, 28, 20, 20, 22,  0,  9, 11, 11, 11, 11, 11, 11, 11, 11, 11, 11, 11, 11, 11, 11, 11, 11, 11, 11, 11, 11,
        | 14, 17, 14, 14, 19,  9,  0, 17, 22, 21,  9, 21, 17, 17, 21, 14, 14, 17,  9,  0, 13, 13, 13, 13, 13, 13, 13, 13, 13, 13, 13, 13, 13, 13, 13, 13, 13, 13, 13, 13,
        | 29, 30, 29, 29, 34,  9, 17,  0, 13, 33,  9, 33, 30,  0, 37, 29, 29, 30,  9, 17, 16, 16, 16, 16, 16, 16, 16, 16, 16, 16, 16, 16, 16, 16, 16, 16, 16, 16, 16, 16,
        | 29, 29, 29, 29, 34, 15, 22, 13,  0, 28, 15, 28, 29, 13, 36, 29, 29, 29, 15, 22, 12, 12, 12, 12, 12, 12, 12, 12, 12, 12, 12, 12, 12, 12, 12, 12, 12, 12, 12, 12,
        | 10,  7, 10, 10, 12, 25, 21, 33, 28,  0, 25,  0,  7, 33, 13, 10, 10,  7, 25, 21, 17, 17, 17, 17, 17, 17, 17, 17, 17, 17, 17, 17, 17, 17, 17, 17, 17, 17, 17, 17,
        | 20, 22, 20, 20, 26,  0,  9,  9, 15, 25,  0, 25, 22,  9, 28, 20, 20, 22,  0,  9, 11, 11, 11, 11, 11, 11, 11, 11, 11, 11, 11, 11, 11, 11, 11, 11, 11, 11, 11, 11,
        | 10,  7, 10, 10, 12, 25, 21, 33, 28,  0, 25,  0,  7, 33, 13, 10, 10,  7, 25, 21, 17, 17, 17, 17, 17, 17, 17, 17, 17, 17, 17, 17, 17, 17, 17, 17, 17, 17, 17, 17,
        |  4,  0,  4,  4,  7, 22, 17, 30, 29,  7, 22,  7,  0, 30,  8,  4,  4,  0, 22, 17, 18, 18, 18, 18, 18, 18, 18, 18, 18, 18, 18, 18, 18, 18, 18, 18, 18, 18, 18, 18,
        | 29, 30, 29, 29, 34,  9, 17,  0, 13, 33,  9, 33, 30,  0, 37, 29, 29, 30,  9, 17, 16, 16, 16, 16, 16, 16, 16, 16, 16, 16, 16, 16, 16, 16, 16, 16, 16, 16, 16, 16,
        |  8,  8,  8,  8,  3, 28, 21, 37, 36, 13, 28, 13,  8, 37,  0,  8,  8,  8, 28, 21, 25, 25, 25, 25, 25, 25, 25, 25, 25, 25, 25, 25, 25, 25, 25, 25, 25, 25, 25, 25,
        |  0,  4,  0,  0,  6, 20, 14, 29, 29, 10, 20, 10,  4, 29,  8,  0,  0,  4, 20, 14, 17, 17, 17, 17, 17, 17, 17, 17, 17, 17, 17, 17, 17, 17, 17, 17, 17, 17, 17, 17,
        |  0,  4,  0,  0,  6, 20, 14, 29, 29, 10, 20, 10,  4, 29,  8,  0,  0,  4, 20, 14, 17, 17, 17, 17, 17, 17, 17, 17, 17, 17, 17, 17, 17, 17, 17, 17, 17, 17, 17, 17,
        |  4,  0,  4,  4,  7, 22, 17, 30, 29,  7, 22,  7,  0, 30,  8,  4,  4,  0, 22, 17, 18, 18, 18, 18, 18, 18, 18, 18, 18, 18, 18, 18, 18, 18, 18, 18, 18, 18, 18, 18,
        | 20, 22, 20, 20, 26,  0,  9,  9, 15, 25,  0, 25, 22,  9, 28, 20, 20, 22,  0,  9, 11, 11, 11, 11, 11, 11, 11, 11, 11, 11, 11, 11, 11, 11, 11, 11, 11, 11, 11, 11,
        | 14, 17, 14, 14, 19,  9,  0, 17, 22, 21,  9, 21, 17, 17, 21, 14, 14, 17,  9,  0, 13, 13, 13, 13, 13, 13, 13, 13, 13, 13, 13, 13, 13, 13, 13, 13, 13, 13, 13, 13,
        | 17, 18, 17, 17, 23, 11, 13, 16, 12, 17, 11, 17, 18, 16, 25, 17, 17, 18, 11, 13,  0,  0,  0,  0,  0,  0,  0,  0,  0,  0,  0,  0,  0,  0,  0,  0,  0,  0,  0,  0,
        | 17, 18, 17, 17, 23, 11, 13, 16, 12, 17, 11, 17, 18, 16, 25, 17, 17, 18, 11, 13,  0,  0,  0,  0,  0,  0,  0,  0,  0,  0,  0,  0,  0,  0,  0,  0,  0,  0,  0,  0,
        | 17, 18, 17, 17, 23, 11, 13, 16, 12, 17, 11, 17, 18, 16, 25, 17, 17, 18, 11, 13,  0,  0,  0,  0,  0,  0,  0,  0,  0,  0,  0,  0,  0,  0,  0,  0,  0,  0,  0,  0,
        | 17, 18, 17, 17, 23, 11, 13, 16, 12, 17, 11, 17, 18, 16, 25, 17, 17, 18, 11, 13,  0,  0,  0,  0,  0,  0,  0,  0,  0,  0,  0,  0,  0,  0,  0,  0,  0,  0,  0,  0,
        | 17, 18, 17, 17, 23, 11, 13, 16, 12, 17, 11, 17, 18, 16, 25, 17, 17, 18, 11, 13,  0,  0,  0,  0,  0,  0,  0,  0,  0,  0,  0,  0,  0,  0,  0,  0,  0,  0,  0,  0,
        | 17, 18, 17, 17, 23, 11, 13, 16, 12, 17, 11, 17, 18, 16, 25, 17, 17, 18, 11, 13,  0,  0,  0,  0,  0,  0,  0,  0,  0,  0,  0,  0,  0,  0,  0,  0,  0,  0,  0,  0,
        | 17, 18, 17, 17, 23, 11, 13, 16, 12, 17, 11, 17, 18, 16, 25, 17, 17, 18, 11, 13,  0,  0,  0,  0,  0,  0,  0,  0,  0,  0,  0,  0,  0,  0,  0,  0,  0,  0,  0,  0,
        | 17, 18, 17, 17, 23, 11, 13, 16, 12, 17, 11, 17, 18, 16, 25, 17, 17, 18, 11, 13,  0,  0,  0,  0,  0,  0,  0,  0,  0,  0,  0,  0,  0,  0,  0,  0,  0,  0,  0,  0,
        | 17, 18, 17, 17, 23, 11, 13, 16, 12, 17, 11, 17, 18, 16, 25, 17, 17, 18, 11, 13,  0,  0,  0,  0,  0,  0,  0,  0,  0,  0,  0,  0,  0,  0,  0,  0,  0,  0,  0,  0,
        | 17, 18, 17, 17, 23, 11, 13, 16, 12, 17, 11, 17, 18, 16, 25, 17, 17, 18, 11, 13,  0,  0,  0,  0,  0,  0,  0,  0,  0,  0,  0,  0,  0,  0,  0,  0,  0,  0,  0,  0,
        | 17, 18, 17, 17, 23, 11, 13, 16, 12, 17, 11, 17, 18, 16, 25, 17, 17, 18, 11, 13,  0,  0,  0,  0,  0,  0,  0,  0,  0,  0,  0,  0,  0,  0,  0,  0,  0,  0,  0,  0,
        | 17, 18, 17, 17, 23, 11, 13, 16, 12, 17, 11, 17, 18, 16, 25, 17, 17, 18, 11, 13,  0,  0,  0,  0,  0,  0,  0,  0,  0,  0,  0,  0,  0,  0,  0,  0,  0,  0,  0,  0,
        | 17, 18, 17, 17, 23, 11, 13, 16, 12, 17, 11, 17, 18, 16, 25, 17, 17, 18, 11, 13,  0,  0,  0,  0,  0,  0,  0,  0,  0,  0,  0,  0,  0,  0,  0,  0,  0,  0,  0,  0,
        | 17, 18, 17, 17, 23, 11, 13, 16, 12, 17, 11, 17, 18, 16, 25, 17, 17, 18, 11, 13,  0,  0,  0,  0,  0,  0,  0,  0,  0,  0,  0,  0,  0,  0,  0,  0,  0,  0,  0,  0,
        | 17, 18, 17, 17, 23, 11, 13, 16, 12, 17, 11, 17, 18, 16, 25, 17, 17, 18, 11, 13,  0,  0,  0,  0,  0,  0,  0,  0,  0,  0,  0,  0,  0,  0,  0,  0,  0,  0,  0,  0,
        | 17, 18, 17, 17, 23, 11, 13, 16, 12, 17, 11, 17, 18, 16, 25, 17, 17, 18, 11, 13,  0,  0,  0,  0,  0,  0,  0,  0,  0,  0,  0,  0,  0,  0,  0,  0,  0,  0,  0,  0,
        | 17, 18, 17, 17, 23, 11, 13, 16, 12, 17, 11, 17, 18, 16, 25, 17, 17, 18, 11, 13,  0,  0,  0,  0,  0,  0,  0,  0,  0,  0,  0,  0,  0,  0,  0,  0,  0,  0,  0,  0,
        | 17, 18, 17, 17, 23, 11, 13, 16, 12, 17, 11, 17, 18, 16, 25, 17, 17, 18, 11, 13,  0,  0,  0,  0,  0,  0,  0,  0,  0,  0,  0,  0,  0,  0,  0,  0,  0,  0,  0,  0,
        | 17, 18, 17, 17, 23, 11, 13, 16, 12, 17, 11, 17, 18, 16, 25, 17, 17, 18, 11, 13,  0,  0,  0,  0,  0,  0,  0,  0,  0,  0,  0,  0,  0,  0,  0,  0,  0,  0,  0,  0,
        | 17, 18, 17, 17, 23, 11, 13, 16, 12, 17, 11, 17, 18, 16, 25, 17, 17, 18, 11, 13,  0,  0,  0,  0,  0,  0,  0,  0,  0,  0,  0,  0,  0,  0,  0,  0,  0,  0,  0,  0|];
l =     [  3,  1,  3,  3, 10, 11,  6,  7,  2,  5, 11,  5,  1,  7,  8,  3,  3,  1, 11,  6];
a =     [ 17, 18, 24, 17, 34, 43, 13, 16, 21, 17, 47, 39, 41, 59, 49, 74, 40, 60, 52, 50];
b =     [ 39, 52, 46, 36, 64, 61, 29, 55, 59, 37,115, 93, 89,109, 92,117, 83,104,120,116];
s =     [ 10, 14, 13, 13, 12, 11, 13, 14, 16, 12, 10, 14, 13, 13, 12, 11, 13, 14, 16, 12];
q =     [  3,  1,  3,  4,  2,  4,  4,  3,  1,  4, -3, -1, -3, -4, -2, -4, -4, -3, -1, -4];
